c SAT problem
p wcnf 383 1982
1 -60 -3120 0
1 60 -3165 0
1 -75 -76 0
1 -75 -3150 0
1 -75 -3135 0
1 90 -3075 0
1 90 105 0
1 90 3060 0
1 90 -91 0
1 -105 3105 0
1 105 -106 0
1 -105 -3120 0
1 105 3090 0
1 -105 -90 0
1 105 3135 0
1 3120 -165 0
1 -3120 105 0
1 3120 -75 0
1 3120 -120 0
1 -3120 3135 0
1 -3135 -3136 0
1 -3135 -165 0
1 -3135 -135 0
1 3135 -120 0
1 3150 136 0
1 3150 181 0
1 3165 196 0
1 -3165 136 0
1 3165 -75 0
1 -3165 -181 0
1 -3165 121 0
1 -3165 60 0
1 3165 -3166 0
1 -120 -3075 0
1 -120 135 0
1 -120 3090 0
1 135 3135 0
1 -150 -3105 0
1 150 -3045 0
1 -150 3090 0
1 150 3000 0
1 150 3135 0
1 -165 -3105 0
1 -165 -3015 0
1 165 3090 0
1 165 -3135 0
1 -3060 -195 0
1 -3060 165 0
1 3060 135 0
1 3060 105 0
1 3060 210 0
1 3060 180 0
1 -3060 -3061 0
1 3060 -150 0
1 3075 -225 0
1 -3075 -195 0
1 3075 -165 0
1 -3075 -240 0
1 -3090 226 0
1 -3090 -165 0
1 -3090 211 0
1 3090 3091 0
1 3090 -181 0
1 -3105 -226 0
1 3105 -3090 0
1 -3105 211 0
1 3105 -150 0
1 -3105 120 0
1 -180 -181 0
1 -180 3000 0
1 -195 196 0
1 -195 3045 0
1 195 -180 0
1 195 -3030 0
1 -195 3000 0
1 210 -3075 0
1 210 3045 0
1 210 -3060 0
1 -225 -3075 0
1 -225 210 0
1 225 -3060 0
1 -225 3000 0
1 3000 -195 0
1 -3000 -3015 0
1 3000 3001 0
1 -3000 -315 0
1 3015 225 0
1 -3015 195 0
1 3015 165 0
1 -3015 -150 0
1 3015 -3000 0
1 -3030 225 0
1 -3030 195 0
1 -3030 165 0
1 -3030 -150 0
1 -3030 -3031 0
1 -3030 -255 0
1 3045 -195 0
1 -3045 -165 0
1 3045 -270 0
1 -3045 210 0
1 -3045 150 0
1 -3045 315 0
1 -61 3300 0
1 61 -76 0
1 61 3345 0
1 61 60 0
1 76 3330 0
1 -76 -75 0
1 76 -77 0
1 -76 -3345 0
1 -91 -3300 0
1 91 -3240 0
1 91 3285 0
1 91 92 0
1 -106 3330 0
1 106 -3300 0
1 106 105 0
1 -106 -3345 0
1 106 -3255 0
1 -106 -91 0
1 -3300 197 0
1 -3300 121 0
1 3300 91 0
1 3315 -3300 0
1 -3315 166 0
1 3315 -3316 0
1 -3315 -182 0
1 3315 151 0
1 -3315 61 0
1 -3330 -167 0
1 3330 182 0
1 -3330 122 0
1 -3330 91 0
1 -3345 -197 0
1 -3345 106 0
1 -3345 -182 0
1 -3345 -122 0
1 3345 91 0
1 -3345 61 0
1 -121 -3300 0
1 121 3240 0
1 -121 3150 0
1 121 3285 0
1 -121 3165 0
1 136 -3300 0
1 136 -3270 0
1 136 -3240 0
1 136 -137 0
1 -136 -3285 0
1 -136 3255 0
1 151 3150 0
1 151 -3285 0
1 151 -152 0
1 151 3225 0
1 166 -3255 0
1 166 -3270 0
1 -166 167 0
1 166 3240 0
1 166 3210 0
1 -166 -3180 0
1 -166 -3165 0
1 -3240 256 0
1 3240 -3255 0
1 -3240 -226 0
1 3240 -136 0
1 3240 3241 0
1 -3240 -241 0
1 3240 -211 0
1 -3240 91 0
1 3255 -3240 0
1 -3255 106 0
1 3255 -241 0
1 -3255 -181 0
1 3255 -3256 0
1 3255 91 0
1 3270 197 0
1 3270 -166 0
1 3270 136 0
1 -3270 106 0
1 3270 241 0
1 -3270 212 0
1 3270 121 0
1 3285 166 0
1 -3285 106 0
1 -3285 -212 0
1 181 -3105 0
1 -181 -196 0
1 181 3150 0
1 181 -180 0
1 181 -3255 0
1 181 3225 0
1 181 -3165 0
1 -196 3105 0
1 -196 -195 0
1 -196 197 0
1 -196 -3180 0
1 196 3150 0
1 -196 -3120 0
1 -196 -3090 0
1 -196 181 0
1 -196 3225 0
1 196 3195 0
1 211 -3105 0
1 -211 226 0
1 -211 3180 0
1 -211 -3151 0
1 211 3121 0
1 211 -3225 0
1 -211 -3195 0
1 -211 3166 0
1 -226 3136 0
1 226 -3105 0
1 226 3180 0
1 226 3151 0
1 226 -3121 0
1 -226 -3195 0
1 -3180 -226 0
1 -3180 166 0
1 -3180 -270 0
1 -3180 -181 0
1 3195 3180 0
1 -3195 -240 0
1 3195 3196 0
1 -3195 -211 0
1 -3195 -151 0
1 3195 316 0
1 3195 285 0
1 3210 196 0
1 -3210 -3211 0
1 -3210 301 0
1 3210 -271 0
1 -3210 -181 0
1 3210 -3225 0
1 3210 -316 0
1 -3210 -286 0
1 -3225 -301 0
1 -3225 241 0
1 240 -3151 0
1 -255 -256 0
1 255 3045 0
1 -255 3180 0
1 255 -3121 0
1 255 3166 0
1 270 3106 0
1 270 -3045 0
1 -270 -3180 0
1 270 -3121 0
1 270 -3061 0
1 -285 -3151 0
1 -285 3121 0
1 -3121 270 0
1 -3121 240 0
1 -3121 3120 0
1 3121 211 0
1 -3121 376 0
1 -3121 285 0
1 3121 255 0
1 3136 -270 0
1 -3136 3135 0
1 3136 -315 0
1 3136 -255 0
1 -3151 226 0
1 3151 361 0
1 3151 301 0
1 3151 3150 0
1 -3151 346 0
1 -3151 255 0
1 3166 -361 0
1 -3166 -331 0
1 -3166 301 0
1 -3166 -270 0
1 -3166 -3151 0
1 -3166 240 0
1 3166 -211 0
1 3166 346 0
1 -3166 316 0
1 300 -3136 0
1 300 -3106 0
1 -300 -301 0
1 300 3121 0
1 -300 3091 0
1 -300 -3061 0
1 -300 3030 0
1 -300 -315 0
1 -315 3106 0
1 -315 3091 0
1 -330 -3106 0
1 -330 -3076 0
1 330 -3061 0
1 -330 -3001 0
1 -345 3016 0
1 345 330 0
1 345 -3031 0
1 345 -346 0
1 3061 -435 0
1 3061 405 0
1 3061 -345 0
1 -3061 -315 0
1 -3076 -420 0
1 -3076 3077 0
1 -3076 360 0
1 -3076 330 0
1 3076 435 0
1 3076 -405 0
1 -3076 345 0
1 3076 -315 0
1 -3076 285 0
1 -3091 -3106 0
1 3091 420 0
1 3091 330 0
1 3091 270 0
1 -3091 -3090 0
1 -3091 -435 0
1 3091 3092 0
1 3091 406 0
1 -3091 -376 0
1 3106 -361 0
1 3106 330 0
1 3106 3091 0
1 -3106 376 0
1 3106 345 0
1 3106 -285 0
1 360 -3076 0
1 360 -3046 0
1 -360 -361 0
1 -360 3031 0
1 -360 -3001 0
1 -375 -3016 0
1 -375 -3061 0
1 375 376 0
1 375 -3001 0
1 -390 3076 0
1 390 391 0
1 -390 -3061 0
1 -390 3001 0
1 405 -3046 0
1 405 -3061 0
1 405 3031 0
1 -405 3001 0
1 -3001 360 0
1 3001 3016 0
1 3001 -3002 0
1 3016 -3015 0
1 3016 330 0
1 -3016 -405 0
1 -3016 345 0
1 3016 -3001 0
1 3031 -390 0
1 -3031 -3046 0
1 3031 330 0
1 -3031 -465 0
1 -3031 3030 0
1 -3031 375 0
1 -3031 3032 0
1 -3031 -345 0
1 -3046 480 0
1 -3046 450 0
1 -3046 390 0
1 3046 3047 0
1 -3046 330 0
1 3046 -375 0
1 62 -77 0
1 -62 -61 0
1 -62 -63 0
1 77 3525 0
1 -92 3525 0
1 -92 -3495 0
1 92 -3450 0
1 -92 91 0
1 -92 3420 0
1 92 93 0
1 107 106 0
1 107 3420 0
1 107 -3450 0
1 3480 198 0
1 3480 -167 0
1 3480 183 0
1 -3480 122 0
1 3495 -3480 0
1 -3495 107 0
1 -3510 3525 0
1 -3510 168 0
1 3510 138 0
1 -3510 -107 0
1 -3510 77 0
1 3510 153 0
1 -3510 92 0
1 -3525 -198 0
1 3525 168 0
1 3525 -153 0
1 -3525 -123 0
1 122 3330 0
1 -122 3495 0
1 -122 -137 0
1 -122 3435 0
1 122 3480 0
1 -122 3450 0
1 -137 -3450 0
1 137 3345 0
1 -152 3330 0
1 -152 -3405 0
1 -152 -151 0
1 -152 3480 0
1 -152 153 0
1 152 3450 0
1 167 3480 0
1 -167 -3405 0
1 167 -3420 0
1 -3420 197 0
1 -3435 -167 0
1 -3435 -242 0
1 -3435 -3420 0
1 3435 -152 0
1 -3450 -137 0
1 -3450 3465 0
1 3450 -107 0
1 -3450 -122 0
1 3450 3451 0
1 3450 -92 0
1 -3465 257 0
1 -3465 -167 0
1 -3465 3450 0
1 182 -3435 0
1 -182 3345 0
1 -182 -3315 0
1 182 -183 0
1 -182 -3390 0
1 -197 3360 0
1 197 -3375 0
1 197 3315 0
1 -197 3420 0
1 197 -3390 0
1 212 3331 0
1 212 -3301 0
1 -212 3435 0
1 212 3375 0
1 -212 3346 0
1 -212 211 0
1 212 -3285 0
1 -227 3360 0
1 -227 -226 0
1 -227 -3301 0
1 -227 3270 0
1 -227 3420 0
1 3360 -227 0
1 3360 197 0
1 3360 -167 0
1 3360 -271 0
1 3360 -3375 0
1 -3360 212 0
1 -3360 -152 0
1 -3375 286 0
1 -3390 -227 0
1 -3390 -242 0
1 3390 -182 0
1 -3405 -257 0
1 -3405 -227 0
1 -3405 -3406 0
1 3405 272 0
1 -3405 242 0
1 -3405 -152 0
1 -3405 -317 0
1 3405 287 0
1 241 256 0
1 241 -3270 0
1 241 -3346 0
1 241 -3225 0
1 -256 3331 0
1 256 3210 0
1 256 3316 0
1 256 255 0
1 271 3301 0
1 -271 -3271 0
1 271 270 0
1 -271 3316 0
1 286 -3360 0
1 286 -3301 0
1 -286 -3271 0
1 -286 3375 0
1 -286 3346 0
1 -286 3286 0
1 -286 -3256 0
1 3301 256 0
1 -3301 331 0
1 -3301 241 0
1 3301 -346 0
1 3301 316 0
1 -3316 -227 0
1 -3316 -3301 0
1 -3316 331 0
1 3316 -271 0
1 -3316 -3317 0
1 3316 377 0
1 -3316 286 0
1 -3331 3330 0
1 -3331 -227 0
1 3331 332 0
1 -3331 -271 0
1 3331 241 0
1 3331 3346 0
1 -3331 212 0
1 3331 -377 0
1 3331 -347 0
1 -3346 -271 0
1 -3346 -241 0
1 -3346 -3347 0
1 3346 377 0
1 3346 -317 0
1 3346 -286 0
1 -301 3301 0
1 301 300 0
1 301 3180 0
1 301 302 0
1 301 -3286 0
1 301 3195 0
1 316 -3180 0
1 316 3286 0
1 316 -3256 0
1 -316 -3225 0
1 316 317 0
1 -331 -3301 0
1 331 330 0
1 331 -3211 0
1 331 -3181 0
1 -331 -3316 0
1 331 -346 0
1 346 3241 0
1 -346 -3211 0
1 -346 3181 0
1 -346 -3316 0
1 346 3226 0
1 -346 347 0
1 -346 3166 0
1 3241 3256 0
1 3241 421 0
1 3241 391 0
1 3241 -361 0
1 3241 -331 0
1 -3241 406 0
1 -3241 -376 0
1 -3256 -421 0
1 3256 391 0
1 -3256 3241 0
1 3256 436 0
1 -3256 -346 0
1 3256 -286 0
1 -3271 -421 0
1 3271 -392 0
1 -3271 3272 0
1 -3271 362 0
1 3271 271 0
1 -3271 377 0
1 -3271 -316 0
1 3271 -286 0
1 -3286 -421 0
1 -3286 3287 0
1 3286 -362 0
1 3286 271 0
1 3286 436 0
1 -3286 -3285 0
1 3286 407 0
1 3286 346 0
1 3286 -286 0
1 361 3256 0
1 -361 -3241 0
1 361 362 0
1 361 3211 0
1 -361 -3181 0
1 -361 -376 0
1 361 3226 0
1 -361 -3196 0
1 361 -3166 0
1 -376 -361 0
1 -376 -3241 0
1 376 3121 0
1 -376 -377 0
1 376 -3166 0
1 -391 3137 0
1 -391 3211 0
1 391 3152 0
1 -391 3122 0
1 -391 -3196 0
1 406 -3137 0
1 -406 3106 0
1 406 -3181 0
1 -406 -3152 0
1 406 3122 0
1 406 -3256 0
1 406 -3196 0
1 -406 3167 0
1 -3181 450 0
1 3181 420 0
1 3181 391 0
1 3181 -331 0
1 3181 -465 0
1 -3181 346 0
1 -3196 -481 0
1 3196 420 0
1 3196 -331 0
1 -3196 -3181 0
1 -3196 -496 0
1 3196 406 0
1 -3211 -481 0
1 3211 -451 0
1 -3211 3226 0
1 3211 361 0
1 -3211 -331 0
1 3211 496 0
1 3211 -406 0
1 -3226 -481 0
1 -3226 -421 0
1 3226 391 0
1 -3226 -361 0
1 -3226 496 0
1 -3226 -436 0
1 3226 376 0
1 -3226 3225 0
1 3226 -3227 0
1 420 3076 0
1 420 -3152 0
1 420 -435 0
1 420 -3031 0
1 -420 3167 0
1 -435 420 0
1 -435 -3046 0
1 -435 3181 0
1 -435 3152 0
1 -435 -436 0
1 450 451 0
1 -450 3046 0
1 -450 -3181 0
1 -450 -465 0
1 450 -3062 0
1 -450 3167 0
1 465 -3137 0
1 465 -450 0
1 465 -3077 0
1 465 -3046 0
1 -465 -3092 0
1 465 -3196 0
1 -465 -3167 0
1 3122 -3137 0
1 -3122 420 0
1 -3122 391 0
1 -3122 525 0
1 -3122 -495 0
1 3122 -465 0
1 -3122 -3121 0
1 3122 -406 0
1 3137 480 0
1 -3137 -3136 0
1 -3137 -391 0
1 3137 -525 0
1 3137 495 0
1 -3137 -465 0
1 -3137 -406 0
1 3137 -541 0
1 -3152 -556 0
1 -3152 496 0
1 -3152 465 0
1 3152 -3153 0
1 -3152 -435 0
1 -3152 511 0
1 3167 -450 0
1 3167 -420 0
1 3167 -406 0
1 3167 3166 0
1 -480 3137 0
1 480 3016 0
1 -480 -3122 0
1 480 3092 0
1 480 -3031 0
1 -480 -3001 0
1 -495 3077 0
1 -495 3046 0
1 495 3122 0
1 -495 -3092 0
1 -495 -3031 0
1 495 3001 0
1 -510 3137 0
1 510 -3092 0
1 -510 3062 0
1 -510 3002 0
1 525 3047 0
1 -525 -3017 0
1 525 3092 0
1 -525 -3062 0
1 3062 480 0
1 -3062 -615 0
1 3062 -525 0
1 -3062 495 0
1 3062 465 0
1 -3062 600 0
1 -3062 510 0
1 -3077 -480 0
1 3077 3076 0
1 3077 -555 0
1 -3077 -495 0
1 -3077 -465 0
1 3077 -510 0
1 -3092 -480 0
1 3092 450 0
1 3092 586 0
1 3092 -556 0
1 -3092 -525 0
1 3092 495 0
1 -3092 -3091 0
1 3092 600 0
1 3092 510 0
1 3107 -556 0
1 -3107 -525 0
1 3107 495 0
1 -3107 3092 0
1 -540 3047 0
1 -540 -555 0
1 540 -541 0
1 555 3077 0
1 555 3047 0
1 555 540 0
1 570 3047 0
1 570 3017 0
1 570 3062 0
1 570 -3032 0
1 585 3002 0
1 585 -3062 0
1 585 -570 0
1 -3002 -675 0
1 3002 -3017 0
1 3002 555 0
1 -3002 3001 0
1 -3002 -570 0
1 -3002 -3003 0
1 3017 675 0
1 3017 585 0
1 -3017 3018 0
1 3017 -660 0
1 3017 -540 0
1 -3032 -615 0
1 -3032 555 0
1 -3032 -525 0
1 -3032 -660 0
1 -3032 600 0
1 3032 570 0
1 3047 -3048 0
1 -3047 -585 0
1 3047 525 0
1 -3047 -660 0
1 -3047 600 0
1 3047 570 0
1 -3047 -540 0
1 63 -3690 0
1 63 3675 0
1 -63 62 0
1 -78 63 0
1 93 108 0
1 -93 -3660 0
1 -93 3630 0
1 -93 3705 0
1 -93 -3645 0
1 108 3705 0
1 -108 -3675 0
1 -108 -3615 0
1 3660 168 0
1 3660 -138 0
1 3660 78 0
1 -3660 -153 0
1 -3660 -3675 0
1 -3660 93 0
1 3660 -63 0
1 -3675 108 0
1 3675 3660 0
1 3675 -153 0
1 -3675 3676 0
1 -3690 -3691 0
1 3690 -78 0
1 3705 108 0
1 -3705 63 0
1 -123 138 0
1 123 3660 0
1 -123 3600 0
1 123 3645 0
1 -123 -3615 0
1 138 137 0
1 138 3660 0
1 -138 -3630 0
1 -138 3510 0
1 138 3645 0
1 -138 3615 0
1 153 3585 0
1 -153 -168 0
1 153 3600 0
1 153 -152 0
1 -153 3645 0
1 -168 167 0
1 -168 3660 0
1 168 -3600 0
1 -3600 -228 0
1 -3600 198 0
1 3600 -138 0
1 -3600 -108 0
1 -3600 243 0
1 -3600 -183 0
1 3600 153 0
1 -3600 123 0
1 -3600 93 0
1 -3600 -3615 0
1 -3615 198 0
1 3615 108 0
1 -3630 -138 0
1 3630 -153 0
1 -3645 168 0
1 -3645 -3630 0
1 3645 153 0
1 -183 3480 0
1 183 -198 0
1 183 -3495 0
1 -183 -3525 0
1 183 -3450 0
1 183 -3615 0
1 198 197 0
1 -198 3525 0
1 -198 3495 0
1 -198 -3600 0
1 198 3480 0
1 213 3585 0
1 213 228 0
1 -213 -3526 0
1 -213 -3465 0
1 213 -3600 0
1 213 -212 0
1 213 3511 0
1 213 -3615 0
1 -228 3526 0
1 228 3496 0
1 -228 -3465 0
1 228 -3600 0
1 228 3481 0
1 228 -3450 0
1 -228 3615 0
1 3540 228 0
1 3540 198 0
1 3540 -213 0
1 -3540 3541 0
1 3540 318 0
1 3555 168 0
1 3555 -303 0
1 3555 -272 0
1 3555 -242 0
1 -3555 -213 0
1 -3555 -183 0
1 3570 -198 0
1 -3570 -3571 0
1 3570 -153 0
1 3570 318 0
1 3585 288 0
1 3585 -258 0
1 -3585 3586 0
1 3585 273 0
1 -3585 -3570 0
1 -3585 -318 0
1 -242 -3555 0
1 242 -3526 0
1 242 -3465 0
1 -242 -3435 0
1 242 -3405 0
1 -242 -3540 0
1 -242 3450 0
1 -257 -256 0
1 -257 -3526 0
1 -257 3435 0
1 257 3405 0
1 -257 242 0
1 -257 3450 0
1 257 3420 0
1 -272 -3526 0
1 272 3466 0
1 272 3436 0
1 -272 -273 0
1 -272 -3511 0
1 272 -3390 0
1 -272 287 0
1 -287 288 0
1 -287 3496 0
1 -287 -3405 0
1 287 3540 0
1 287 3481 0
1 287 3451 0
1 -287 3421 0
1 -287 286 0
1 -3481 257 0
1 3481 -3496 0
1 3481 378 0
1 3481 -347 0
1 3481 317 0
1 -3496 -302 0
1 -3496 272 0
1 -3496 213 0
1 3496 378 0
1 3496 287 0
1 -3511 257 0
1 -3511 3526 0
1 -3511 333 0
1 3511 -242 0
1 -3511 213 0
1 3511 3510 0
1 3511 -3512 0
1 3526 -333 0
1 3526 272 0
1 3526 -213 0
1 -3526 -318 0
1 -302 3496 0
1 -302 -301 0
1 302 -3405 0
1 302 -3375 0
1 -302 3346 0
1 -302 3451 0
1 -302 -3421 0
1 -302 -317 0
1 317 -3331 0
1 317 3496 0
1 317 -3466 0
1 317 -3436 0
1 317 3375 0
1 -317 316 0
1 332 -3361 0
1 -332 3331 0
1 332 3466 0
1 332 -331 0
1 -332 333 0
1 -332 3376 0
1 332 -3346 0
1 -332 3451 0
1 332 347 0
1 332 -3391 0
1 347 3331 0
1 -347 3496 0
1 347 -3376 0
1 347 3346 0
1 347 -3481 0
1 347 3451 0
1 347 -348 0
1 -347 -3391 0
1 -3421 -422 0
1 3421 -392 0
1 -3421 362 0
1 3421 332 0
1 -3421 3436 0
1 -3421 302 0
1 3421 -272 0
1 -3421 437 0
1 3421 -347 0
1 3421 -317 0
1 -3436 -422 0
1 3436 362 0
1 -3436 332 0
1 -3436 3437 0
1 3436 -272 0
1 -3436 -407 0
1 -3436 -377 0
1 -3451 -422 0
1 -3451 332 0
1 -3451 -272 0
1 3451 437 0
1 -3451 347 0
1 -3451 3452 0
1 -3451 317 0
1 3466 3465 0
1 3466 -363 0
1 3466 -302 0
1 3466 408 0
1 -3466 317 0
1 -362 3301 0
1 362 3271 0
1 -362 3406 0
1 362 -3376 0
1 362 3391 0
1 377 -3361 0
1 377 -3271 0
1 -377 -3406 0
1 377 -3376 0
1 -377 376 0
1 -377 -3421 0
1 392 3361 0
1 -392 -3302 0
1 -392 391 0
1 392 3406 0
1 -392 -3421 0
1 407 3361 0
1 407 3271 0
1 407 3376 0
1 407 3347 0
1 407 -3317 0
1 -407 -3286 0
1 407 3421 0
1 3361 3360 0
1 3361 -3362 0
1 -3361 -362 0
1 -3361 497 0
1 3361 -466 0
1 3361 -407 0
1 3361 377 0
1 -3376 392 0
1 -3376 497 0
1 3376 407 0
1 3376 -377 0
1 -3391 -3392 0
1 3391 422 0
1 3391 -392 0
1 3391 362 0
1 -3391 -407 0
1 -3391 377 0
1 3391 -347 0
1 -3391 3390 0
1 -3406 362 0
1 3406 407 0
1 -3406 -3391 0
1 421 -420 0
1 -421 -3376 0
1 -421 -3347 0
1 421 -3286 0
1 -421 -3226 0
1 -436 -3211 0
1 436 -3347 0
1 -436 3286 0
1 436 3256 0
1 -436 3226 0
1 451 450 0
1 -451 3272 0
1 -451 -3242 0
1 451 3376 0
1 -451 -466 0
1 -451 -3347 0
1 466 -3361 0
1 466 -3272 0
1 -466 -3376 0
1 -466 3317 0
1 466 3287 0
1 -466 3226 0
1 -3302 451 0
1 3302 -421 0
1 3302 3301 0
1 -3302 -392 0
1 -3302 -557 0
1 -3302 -3317 0
1 3317 -496 0
1 -3317 3318 0
1 -3317 -511 0
1 3332 -421 0
1 -3332 -392 0
1 3332 -557 0
1 -3332 -527 0
1 -3347 3332 0
1 -3347 -421 0
1 -3347 -527 0
1 3347 3348 0
1 481 -3242 0
1 481 3181 0
1 -481 3317 0
1 -481 -3257 0
1 481 -3226 0
1 496 481 0
1 496 3242 0
1 496 3181 0
1 -496 3152 0
1 -496 3226 0
1 496 3167 0
1 -511 -512 0
1 511 3302 0
1 511 3272 0
1 -511 3212 0
1 511 -3287 0
1 -511 3227 0
1 511 -3197 0
1 511 3167 0
1 526 -3302 0
1 526 -3272 0
1 526 -3212 0
1 -526 525 0
1 526 -3152 0
1 526 3317 0
1 526 3257 0
1 -526 3227 0
1 -3242 481 0
1 -3242 -451 0
1 3242 -3257 0
1 -3242 616 0
1 3242 -496 0
1 3242 571 0
1 -3257 556 0
1 -3257 466 0
1 -3257 3256 0
1 3257 601 0
1 -3257 -3258 0
1 -3257 541 0
1 3272 -616 0
1 -3287 -451 0
1 -3287 3272 0
1 -3287 587 0
1 -3287 557 0
1 -3287 496 0
1 3287 466 0
1 -3287 3286 0
1 -3287 -3288 0
1 -541 -3107 0
1 541 -3242 0
1 541 -556 0
1 -541 3212 0
1 541 -3092 0
1 556 3137 0
1 556 3107 0
1 -556 557 0
1 556 -3122 0
1 -556 -3092 0
1 -556 3197 0
1 -556 3257 0
1 556 -3227 0
1 -556 3167 0
1 571 -3168 0
1 571 -3107 0
1 571 3242 0
1 571 3212 0
1 571 3182 0
1 -571 3123 0
1 571 -572 0
1 -586 -3138 0
1 -586 3107 0
1 586 -587 0
1 -586 -3212 0
1 586 -3123 0
1 586 -3092 0
1 3182 645 0
1 3182 -586 0
1 -3182 -3181 0
1 -3182 3197 0
1 -3182 -571 0
1 -3182 541 0
1 -3197 -526 0
1 3197 661 0
1 3197 571 0
1 3197 -3196 0
1 -3197 541 0
1 -3197 511 0
1 3212 -676 0
1 -3212 -3211 0
1 3212 -3227 0
1 -3212 -511 0
1 3227 -661 0
1 3227 -631 0
1 3227 -571 0
1 -600 -3168 0
1 -600 3138 0
1 -600 3107 0
1 -600 -3153 0
1 600 3123 0
1 600 3032 0
1 615 3077 0
1 -615 3062 0
1 -615 3197 0
1 630 3108 0
1 -630 -3047 0
1 -630 -631 0
1 -630 3093 0
1 -645 -3108 0
1 -645 -646 0
1 -645 3047 0
1 645 -3153 0
1 -645 -3093 0
1 645 630 0
1 3123 -3138 0
1 -3123 -645 0
1 -3123 -615 0
1 3123 721 0
1 -3123 -690 0
1 3123 3122 0
1 -3123 -660 0
1 3123 -600 0
1 -3138 3137 0
1 3138 -690 0
1 -3138 630 0
1 3138 600 0
1 -3153 736 0
1 3153 -3168 0
1 -3153 706 0
1 3153 -676 0
1 3153 615 0
1 -3153 586 0
1 3153 -3152 0
1 3153 -661 0
1 -3153 -630 0
1 3153 571 0
1 3168 3153 0
1 3168 661 0
1 3168 -630 0
1 -3168 600 0
1 3168 -571 0
1 660 3138 0
1 660 -3123 0
1 -660 -3093 0
1 -660 -3063 0
1 660 -3002 0
1 675 3138 0
1 675 -3108 0
1 -675 -3047 0
1 675 -3017 0
1 675 -3093 0
1 -675 3002 0
1 -690 3138 0
1 -690 3078 0
1 -690 3003 0
1 705 3108 0
1 705 3078 0
1 705 -3123 0
1 3063 675 0
1 3063 645 0
1 -3063 750 0
1 3063 720 0
1 -3063 -660 0
1 -3063 -630 0
1 3063 -3062 0
1 3063 765 0
1 -3078 675 0
1 -3078 -3077 0
1 -3078 720 0
1 3078 660 0
1 -3078 -3063 0
1 -3078 -765 0
1 3078 735 0
1 3093 -645 0
1 3093 -751 0
1 -3093 630 0
1 -3108 -645 0
1 -3108 660 0
1 -3108 -3093 0
1 -720 -721 0
1 -720 3063 0
1 735 -736 0
1 -750 -3078 0
1 750 3048 0
1 750 -3063 0
1 765 3078 0
1 765 3048 0
1 -765 -3003 0
1 -765 -766 0
1 3003 -3002 0
1 -3003 735 0
1 -3018 -750 0
1 -3018 -765 0
1 3018 -735 0
1 3033 -750 0
1 -3048 -750 0
1 -3048 720 0
1 -243 -3585 0
1 243 -242 0
1 -243 3706 0
1 -243 -3676 0
1 -243 3645 0
1 258 -3585 0
1 -258 3661 0
1 258 -3676 0
1 -273 3585 0
1 273 3616 0
1 273 -3631 0
1 273 -272 0
1 273 3601 0
1 -273 3706 0
1 288 3691 0
1 -288 3631 0
1 288 3706 0
1 288 -3676 0
1 288 -287 0
1 3661 -258 0
1 3661 333 0
1 3661 303 0
1 -3661 3662 0
1 3661 243 0
1 3661 348 0
1 -3676 -288 0
1 -3676 -333 0
1 -3676 303 0
1 3676 -243 0
1 3691 258 0
1 -3691 -273 0
1 3706 258 0
1 -3706 3691 0
1 3706 -273 0
1 -3706 3705 0
1 303 -3616 0
1 -303 3585 0
1 303 -3555 0
1 303 3646 0
1 -303 3631 0
1 303 3540 0
1 -318 3616 0
1 318 -3555 0
1 -318 3526 0
1 -318 3661 0
1 318 3601 0
1 318 3570 0
1 318 3540 0
1 318 -317 0
1 318 -3646 0
1 -333 332 0
1 333 -3661 0
1 -333 -3601 0
1 -333 3511 0
1 333 348 0
1 348 3616 0
1 -348 -3586 0
1 348 333 0
1 348 -3631 0
1 348 3571 0
1 348 -3541 0
1 -3601 423 0
1 -3601 333 0
1 3601 -273 0
1 3601 3602 0
1 -3601 -408 0
1 3601 -378 0
1 -3601 348 0
1 -3616 -288 0
1 -3616 423 0
1 -3616 -363 0
1 3616 -333 0
1 3616 -303 0
1 3616 378 0
1 3616 348 0
1 3616 318 0
1 3631 -3646 0
1 3631 -3630 0
1 -3631 -303 0
1 -3631 273 0
1 -3646 333 0
1 3646 -438 0
1 -3646 -3647 0
1 363 -3586 0
1 -363 3556 0
1 363 -3526 0
1 -363 -3496 0
1 -363 362 0
1 -363 3466 0
1 378 -3616 0
1 -378 3556 0
1 378 -3496 0
1 -378 -3481 0
1 -378 3571 0
1 -393 -3586 0
1 393 3556 0
1 393 -3512 0
1 393 392 0
1 393 -3497 0
1 -393 -3601 0
1 -393 3541 0
1 -393 -408 0
1 -393 3482 0
1 408 3616 0
1 -408 -3556 0
1 -408 -3512 0
1 408 3482 0
1 -408 -3451 0
1 -3541 483 0
1 3541 3556 0
1 -3541 -422 0
1 3541 393 0
1 3541 -3542 0
1 3541 -378 0
1 -3541 -348 0
1 3556 452 0
1 3556 3555 0
1 3556 -422 0
1 3556 363 0
1 -3556 333 0
1 3556 437 0
1 -3556 378 0
1 -3571 -483 0
1 3571 -393 0
1 3571 -363 0
1 -3571 498 0
1 -3571 408 0
1 -3586 3585 0
1 3586 453 0
1 -3586 393 0
1 3586 363 0
1 3586 -333 0
1 -3586 3571 0
1 -3586 468 0
1 -3586 -378 0
1 3586 348 0
1 -422 3541 0
1 422 3451 0
1 422 3421 0
1 422 -3391 0
1 -437 -422 0
1 -437 3497 0
1 -437 3466 0
1 437 3406 0
1 437 -3512 0
1 437 3451 0
1 437 3421 0
1 452 -453 0
1 -452 3527 0
1 452 -3467 0
1 452 3437 0
1 -452 -3406 0
1 452 -3512 0
1 -452 -3422 0
1 -452 -3391 0
1 -467 -3556 0
1 467 -3497 0
1 467 -3467 0
1 467 3422 0
1 467 -3391 0
1 3482 422 0
1 3482 3497 0
1 -3482 467 0
1 -3482 -408 0
1 -3497 512 0
1 -3497 482 0
1 3497 3496 0
1 3497 -437 0
1 -3497 -3482 0
1 -3512 3511 0
1 -3527 483 0
1 -3527 422 0
1 -3527 3512 0
1 3527 558 0
1 3527 498 0
1 -3527 -467 0
1 3527 437 0
1 -482 483 0
1 -482 3437 0
1 482 3406 0
1 482 -3376 0
1 482 497 0
1 482 -3347 0
1 -482 -3482 0
1 -482 3422 0
1 -497 3467 0
1 -497 3437 0
1 -497 -3406 0
1 -497 3376 0
1 -497 3347 0
1 -497 3422 0
1 512 3437 0
1 -512 -527 0
1 -512 -3377 0
1 -512 -3347 0
1 -512 3482 0
1 -512 3452 0
1 -512 3422 0
1 -527 -512 0
1 527 3497 0
1 -527 -3437 0
1 527 3407 0
1 -527 -3347 0
1 -3422 -512 0
1 -3422 -617 0
1 -3422 -587 0
1 3422 -557 0
1 3422 3423 0
1 -3437 452 0
1 3437 -467 0
1 -3437 3422 0
1 3452 512 0
1 -3452 -452 0
1 3452 617 0
1 -3452 -3467 0
1 3452 558 0
1 3452 -527 0
1 3452 602 0
1 3452 -573 0
1 3467 -512 0
1 -3467 -617 0
1 3467 -3466 0
1 3467 3468 0
1 3467 497 0
1 3467 -3452 0
1 3467 -573 0
1 -557 3392 0
1 557 -3362 0
1 557 3302 0
1 -557 558 0
1 -557 -3377 0
1 -572 3362 0
1 572 3303 0
1 572 -3272 0
1 -572 -3318 0
1 572 3287 0
1 -572 571 0
1 572 573 0
1 -572 3422 0
1 587 3362 0
1 -587 -586 0
1 -587 588 0
1 587 -3437 0
1 -587 3348 0
1 587 3318 0
1 -3362 677 0
1 -3362 -616 0
1 -3362 527 0
1 -3362 -572 0
1 -3377 -3362 0
1 3377 -677 0
1 3377 646 0
1 3377 557 0
1 3377 631 0
1 3392 -3393 0
1 3392 617 0
1 -3392 3407 0
1 3392 632 0
1 3392 -602 0
1 3392 -3391 0
1 -3407 -512 0
1 3407 -677 0
1 -3407 -647 0
1 -3407 -617 0
1 3407 -557 0
1 3407 3406 0
1 3407 -662 0
1 3407 -632 0
1 -601 3303 0
1 -601 3242 0
1 -601 3212 0
1 -601 -3348 0
1 -601 -3257 0
1 -601 602 0
1 616 3333 0
1 616 3377 0
1 -616 3348 0
1 631 3273 0
1 -631 -3212 0
1 631 -3377 0
1 -631 3348 0
1 -631 3258 0
1 -646 3212 0
1 646 3288 0
1 646 3258 0
1 3303 616 0
1 3303 -587 0
1 3303 661 0
1 -3303 -631 0
1 3318 737 0
1 3318 -706 0
1 -3318 -646 0
1 -3318 616 0
1 3318 661 0
1 -3318 3317 0
1 3318 631 0
1 -3318 601 0
1 3333 -587 0
1 3333 722 0
1 3333 662 0
1 3333 -572 0
1 -3348 722 0
1 661 -3168 0
1 661 676 0
1 661 -3273 0
1 661 3243 0
1 661 -3212 0
1 -661 -3153 0
1 -661 -660 0
1 -661 -3318 0
1 661 -3227 0
1 -661 -3197 0
1 676 3212 0
1 676 3182 0
1 -676 -3153 0
1 676 3318 0
1 691 -3168 0
1 691 3243 0
1 691 3213 0
1 -691 -3183 0
1 -691 -3153 0
1 691 -690 0
1 -691 3288 0
1 691 -3198 0
1 706 -3273 0
1 -706 -3213 0
1 -706 -3153 0
1 706 -3258 0
1 706 -3228 0
1 -3243 -706 0
1 -3243 -676 0
1 3243 -751 0
1 -3243 -721 0
1 -3243 -631 0
1 3243 766 0
1 -3258 736 0
1 -3258 -706 0
1 -3258 646 0
1 3258 -751 0
1 -3258 -691 0
1 3273 646 0
1 3273 752 0
1 -3288 -737 0
1 -3288 -706 0
1 -3288 -676 0
1 -3288 646 0
1 3288 722 0
1 -3288 691 0
1 3288 -3287 0
1 3288 767 0
1 -721 736 0
1 721 -3168 0
1 721 3183 0
1 721 720 0
1 721 -3153 0
1 721 3123 0
1 -736 3168 0
1 -736 -737 0
1 736 -3213 0
1 736 3183 0
1 736 721 0
1 -736 -3153 0
1 736 3228 0
1 -751 3258 0
1 751 -3183 0
1 751 -766 0
1 766 -3183 0
1 -766 3093 0
1 766 -3258 0
1 766 767 0
1 3183 -736 0
1 3183 706 0
1 -3183 -691 0
1 -3183 -3198 0
1 -3198 -736 0
1 3198 -706 0
1 3198 -751 0
1 3198 3183 0
1 -3198 721 0
1 3198 691 0
1 -3198 3197 0
1 -3213 -3212 0
1 3213 -751 0
1 3213 -721 0
1 -3213 -691 0
1 3228 -736 0
1 -3228 751 0
1 3228 766 0
1 423 -3616 0
1 423 -422 0
1 -423 3692 0
1 438 -423 0
1 -438 -3692 0
1 -438 3662 0
1 -438 -3631 0
1 438 -3601 0
1 -438 -437 0
1 -438 -3707 0
1 453 -3692 0
1 453 -3707 0
1 -453 3677 0
1 -453 -3647 0
1 -468 -3692 0
1 -468 3662 0
1 468 -3602 0
1 -468 -3571 0
1 -468 -3677 0
1 468 3647 0
1 -3662 513 0
1 -3662 528 0
1 3662 3663 0
1 -3662 -498 0
1 -3662 468 0
1 3662 -438 0
1 3677 423 0
1 3677 -3678 0
1 3692 -423 0
1 -3692 -438 0
1 3707 453 0
1 3707 468 0
1 -3707 3708 0
1 483 -3662 0
1 483 -3632 0
1 483 3647 0
1 498 3556 0
1 498 3662 0
1 -498 -497 0
1 -498 -3602 0
1 -498 -3571 0
1 498 -3512 0
1 -498 -3677 0
1 -513 3662 0
1 513 528 0
1 -513 3542 0
1 513 -3512 0
1 -528 3617 0
1 -528 3587 0
1 528 3557 0
1 528 3662 0
1 -528 -3632 0
1 528 -3572 0
1 -528 3542 0
1 528 3677 0
1 3602 -513 0
1 3602 618 0
1 -3602 3603 0
1 3602 468 0
1 3602 573 0
1 -3617 -513 0
1 3617 3618 0
1 -3617 453 0
1 -3617 -588 0
1 -3617 -528 0
1 -3632 513 0
1 3632 -483 0
1 3632 453 0
1 -3632 528 0
1 -3632 -498 0
1 -3632 3633 0
1 3632 468 0
1 3632 603 0
1 3647 -513 0
1 -3647 -453 0
1 -3647 618 0
1 -3647 468 0
1 -3647 603 0
1 -543 -3617 0
1 -543 3467 0
1 -543 -3602 0
1 543 -3542 0
1 543 3512 0
1 543 3482 0
1 -558 3617 0
1 -558 3557 0
1 -558 -3497 0
1 558 -557 0
1 -558 -3572 0
1 558 3542 0
1 -558 -3482 0
1 -573 3587 0
1 573 -3557 0
1 573 3498 0
1 -573 -3467 0
1 588 3557 0
1 -588 3467 0
1 588 -3602 0
1 588 3572 0
1 -3542 513 0
1 -3542 -678 0
1 3542 -617 0
1 3542 3541 0
1 -3542 -663 0
1 3542 -573 0
1 -3557 3556 0
1 -3557 617 0
1 3557 663 0
1 3572 513 0
1 -3572 648 0
1 -3572 588 0
1 -3572 528 0
1 3572 3571 0
1 3572 -663 0
1 3572 633 0
1 3572 -573 0
1 3572 543 0
1 -3587 513 0
1 -3587 618 0
1 -3587 588 0
1 -3587 -528 0
1 -602 -3392 0
1 602 -617 0
1 -602 3498 0
1 602 -3513 0
1 -602 3542 0
1 602 601 0
1 -617 3392 0
1 -617 618 0
1 -617 -3498 0
1 617 -3437 0
1 617 -3483 0
1 -617 3422 0
1 -632 3392 0
1 -632 -647 0
1 -632 3498 0
1 -632 3407 0
1 632 -3542 0
1 -632 -631 0
1 632 -633 0
1 647 -3392 0
1 -647 -3528 0
1 647 -3407 0
1 647 -632 0
1 -647 3453 0
1 647 3423 0
1 -3483 647 0
1 -3483 617 0
1 3483 -692 0
1 3483 662 0
1 -3483 573 0
1 -3498 -738 0
1 -3498 -707 0
1 -3498 3497 0
1 -3498 723 0
1 -3498 632 0
1 3498 573 0
1 -3513 738 0
1 3513 -708 0
1 3513 647 0
1 3513 588 0
1 3513 -723 0
1 3513 693 0
1 3513 -602 0
1 -3513 573 0
1 3528 -3527 0
1 -3528 693 0
1 -3528 632 0
1 3528 602 0
1 3528 -573 0
1 -662 3392 0
1 -662 -3333 0
1 662 3498 0
1 662 -3468 0
1 -662 -3407 0
1 -662 3377 0
1 662 -3348 0
1 662 663 0
1 -677 676 0
1 677 -3468 0
1 -677 -3483 0
1 -677 -3423 0
1 692 3393 0
1 692 3333 0
1 692 -3468 0
1 -692 3408 0
1 -692 3378 0
1 707 706 0
1 707 -708 0
1 707 -3333 0
1 -707 3408 0
1 -707 692 0
1 -707 3483 0
1 -3423 -677 0
1 -3423 -3438 0
1 3423 -752 0
1 -3423 692 0
1 3438 737 0
1 -3438 752 0
1 3438 692 0
1 -3453 768 0
1 -3453 738 0
1 -3453 677 0
1 -3453 -3452 0
1 -3468 -738 0
1 -3468 707 0
1 -3468 753 0
1 3468 3453 0
1 3468 662 0
1 3468 -632 0
1 722 -737 0
1 -722 3393 0
1 722 3408 0
1 722 721 0
1 722 -3378 0
1 -722 -723 0
1 737 738 0
1 -737 -3333 0
1 -737 3273 0
1 -737 -3408 0
1 737 722 0
1 752 -3273 0
1 752 3438 0
1 752 -751 0
1 -752 3288 0
1 -767 3393 0
1 -767 -3438 0
1 767 -752 0
1 -767 -3408 0
1 3363 3362 0
1 3363 -767 0
1 3378 -752 0
1 -3378 -3377 0
1 -3378 -692 0
1 3378 -767 0
1 -3393 707 0
1 3393 -3408 0
1 3393 722 0
1 -3393 -767 0
1 3408 -737 0
1 -3408 3393 0
1 3408 752 0
1 -3408 722 0
1 -3408 767 0
1 603 -3693 0
1 603 -3632 0
1 -603 -3602 0
1 603 -3572 0
1 -603 602 0
1 603 3647 0
1 -618 -3632 0
1 618 -3708 0
1 -618 -3678 0
1 633 -3618 0
1 633 -3587 0
1 633 648 0
1 633 -3693 0
1 -633 -3572 0
1 633 -3708 0
1 648 -3633 0
1 648 -3603 0
1 648 3572 0
1 -3663 -708 0
1 3663 618 0
1 3663 633 0
1 -3678 648 0
1 3678 3663 0
1 -3678 -693 0
1 -3678 -633 0
1 3693 603 0
1 3708 648 0
1 -3708 618 0
1 3708 -3707 0
1 -3708 -3693 0
1 663 3557 0
1 663 -678 0
1 663 3528 0
1 -663 -3663 0
1 663 -3542 0
1 663 -3678 0
1 -678 3587 0
1 678 -3557 0
1 -678 3528 0
1 -678 -3572 0
1 678 663 0
1 678 -3678 0
1 693 -3618 0
1 -693 -3588 0
1 693 -3558 0
1 -693 3663 0
1 693 -3603 0
1 -693 3513 0
1 -708 -3648 0
1 -708 3618 0
1 708 -3588 0
1 708 -3513 0
1 708 -3678 0
1 3603 -768 0
1 -3603 3618 0
1 -3603 723 0
1 -3603 -663 0
1 -3603 633 0
1 -3618 -738 0
1 -3618 -753 0
1 -3618 -693 0
1 3618 633 0
1 3633 678 0
1 3633 648 0
1 3633 -693 0
1 3633 -633 0
1 -723 -738 0
1 723 -3498 0
1 -723 -3468 0
1 723 3603 0
1 -723 3573 0
1 723 -3513 0
1 723 -3483 0
1 -723 3453 0
1 -738 -3573 0
1 -738 3543 0
1 -738 3453 0
1 753 -3588 0
1 753 -3558 0
1 -753 3468 0
1 -753 -752 0
1 -768 3588 0
1 768 3468 0
1 -768 -3453 0
1 768 -767 0
1 3543 768 0
1 -3543 708 0
1 -3543 753 0
1 3558 -768 0
1 3558 723 0
1 -3558 -3543 0
1 -3573 768 0
1 3573 738 0
1 -3573 3588 0
1 -3573 -753 0
1 3588 3587 0
1 3588 -723 0
1 -3588 -693 0
